objective value:                                   -9
t_n_4                                               1 	(obj:-1)
t_n_116                                             1 	(obj:-1)
t_n_309                                             1 	(obj:-1)
t_n_384                                             1 	(obj:-1)
t_n_477                                             1 	(obj:-1)
t_n_501                                             1 	(obj:-1)
t_n_695                                             1 	(obj:-1)
t_n_710                                             1 	(obj:-1)
t_n_829                                             1 	(obj:-1)
